Route #1: 28 42 78 65 25
Route #2: 66 84 90 68
Route #3: 40 88 67 44
Route #4: 63 77 3
Route #5: 52 91 50
Route #6: 93 75
Route #7: 39 10 18
Route #8: 32 33 53 73 95 24
Route #9: 57 72 36 29 43 45 2 7
Route #10: 20 41 22 15
Route #11: 69 16 55 76
Route #12: 71 62 99 98 89
Route #13: 4 13 74
Route #14: 58 12 5
Route #15: 38 47 26 48 96 64 34
Route #16: 79 11 85 30
Route #17: 31 46 35
Route #18: 87 37 6 49 14
Route #19: 81 51 83
Route #20: 19 97 27
Route #21: 17 8
Route #22: 92 9 86
Route #23: 100 61 23
Route #24: 82 60 59
Route #25: 21 56 94 80
Route #26: 1 70 54
Cost 27591.0000
Time 16.0002